p cnf 76 284
3 -1 0
3 -2 0
1 2 -3 0
5 -2 0
5 -4 0
2 4 -5 0
4 -6 -7 0
-4 6 -7 0
4 6 7 0
-4 -6 7 0
-8 -7 0
-8 -4 0
7 4 8 0
9 5 0
9 8 0
-5 -8 -9 0
-9 10 -11 0
9 -10 -11 0
-9 -10 11 0
9 10 11 0
-5 -12 -13 0
5 12 -13 0
-5 12 13 0
5 -12 13 0
14 11 0
14 13 0
-11 -13 -14 0
-15 -3 0
-15 -14 0
3 14 15 0
16 10 0
16 1 0
-10 -1 -16 0
-17 -5 0
-17 16 0
5 -16 17 0
-18 -1 0
-18 -4 0
1 4 18 0
-19 -18 0
-19 6 0
18 -6 19 0
-17 19 -20 0
17 -19 -20 0
-17 -19 20 0
17 19 20 0
-22 -1 0
-22 -21 0
1 21 22 0
23 -22 0
23 18 0
22 -18 -23 0
-21 18 -24 0
21 -18 -24 0
-21 -18 24 0
21 18 24 0
-25 -23 0
-25 24 0
23 -24 25 0
-20 -25 -26 0
20 25 -26 0
-20 25 26 0
20 -25 26 0
-27 -15 0
-27 -26 0
15 26 27 0
28 -1 0
28 7 0
1 -7 -28 0
29 16 0
29 28 0
-16 -28 -29 0
30 -27 0
30 29 0
27 -29 -30 0
-7 31 -32 0
7 -31 -32 0
-7 -31 32 0
7 31 32 0
-33 -32 0
-33 -22 0
32 22 33 0
30 33 -34 0
-30 -33 -34 0
30 -33 34 0
-30 33 34 0
1 -35 -36 0
-1 35 -36 0
1 35 36 0
-1 -35 36 0
37 -2 0
37 28 0
2 -28 -37 0
-38 -21 0
-38 -5 0
21 5 38 0
39 -37 0
39 38 0
37 -38 -39 0
40 36 0
40 -39 0
-36 39 -40 0
-34 40 -41 0
34 -40 -41 0
-34 -40 41 0
34 40 41 0
-42 5 0
-42 -12 0
-5 12 42 0
-43 2 0
-43 -42 0
-2 42 43 0
44 35 0
44 -31 0
-35 31 -44 0
-45 -2 0
-45 -44 0
2 44 45 0
46 -43 0
46 -45 0
43 45 -46 0
-47 -2 0
-47 23 0
2 -23 47 0
-22 4 -48 0
22 -4 -48 0
-22 -4 48 0
22 4 48 0
-49 -48 0
-49 -23 0
48 23 49 0
50 49 0
50 5 0
-49 -5 -50 0
51 -2 0
51 -2 0
2 -51 0
52 50 0
52 51 0
-50 -51 -52 0
-47 52 -53 0
47 -52 -53 0
-47 -52 53 0
47 52 53 0
-54 46 0
-54 -53 0
-46 53 54 0
55 9 0
55 35 0
-9 -35 -55 0
-56 -44 0
-56 6 0
44 -6 56 0
-57 -55 0
-57 56 0
55 -56 57 0
54 57 -58 0
-54 -57 -58 0
54 -57 58 0
-54 57 58 0
22 49 -59 0
-22 -49 -59 0
22 -49 59 0
-22 49 59 0
60 59 0
60 24 0
-59 -24 -60 0
61 22 0
61 -44 0
-22 44 -61 0
21 28 -62 0
-21 -28 -62 0
21 -28 62 0
-21 28 62 0
-62 -35 -63 0
62 35 -63 0
-62 35 63 0
62 -35 63 0
64 61 0
64 -63 0
-61 63 -64 0
-65 10 0
-65 22 0
-10 -22 65 0
66 65 0
66 23 0
-65 -23 -66 0
-68 22 0
-68 -67 0
-22 67 68 0
-66 -68 -69 0
66 68 -69 0
-66 68 69 0
66 -68 69 0
70 -35 0
70 7 0
35 -7 -70 0
71 18 0
71 -70 0
-18 70 -71 0
-72 -69 0
-72 71 0
69 -71 72 0
64 -72 -73 0
-64 72 -73 0
64 72 73 0
-64 -72 73 0
60 73 -74 0
-60 -73 -74 0
60 -73 74 0
-60 73 74 0
-75 58 0
-75 74 0
-58 -74 75 0
-41 75 -76 0
41 -75 -76 0
-41 -75 76 0
41 75 76 0
26 -14 -63 0
4 68 -58 -10 0
-62 50 -38 -25 -51 0
29 75 0
-75 -21 -26 -38 0
39 61 20 -37 0
-57 -10 -2 -49 76 0
-45 62 49 0
-24 40 75 0
-69 -32 18 58 0
69 34 18 31 0
-16 -39 36 -27 0
7 -59 39 32 -27 0
-15 51 69 -23 22 4 0
66 16 64 -49 53 0
17 -28 9 0
16 43 -21 38 -68 28 0
-11 37 15 0
-63 -21 0
44 -61 -29 55 0
-76 -19 0
-57 -55 39 27 0
17 29 -24 -73 15 0
31 -68 0
-33 64 -51 0
-75 61 65 0
62 -30 22 0
-40 73 52 -24 -25 0
73 30 -32 11 0
53 -67 70 16 13 -4 0
31 -28 -5 59 -36 0
-8 -65 -61 59 0
-39 3 -15 -59 40 0
39 23 62 0
-50 51 62 0
17 71 -22 -69 -15 0
-36 42 -22 -56 0
40 -71 -70 0
41 25 73 0
-36 3 -73 29 -22 0
24 8 -18 -11 0
31 -17 -4 -25 0
-27 -74 -64 -71 38 0
23 59 0
4 24 0
35 3 41 37 -59 16 0
37 73 -43 -6 0
-67 7 66 14 0
54 -28 -5 0
73 25 0
17 -4 57 11 0
-11 41 -42 22 0
-27 -14 73 -16 68 0
-38 -34 -42 35 0
70 43 -51 71 0
11 -74 14 -71 6 -75 0
62 -60 9 -34 -22 0
55 11 21 -18 -76 0
24 -16 15 -62 -70 -49 0
24 25 0
41 61 -27 -26 0
-2 10 67 42 57 0
34 -62 49 17 -55 0
-48 54 15 -31 -41 0
55 0
76 0
